933565
0,71,139,48,66,73,156,126,146,162,177,30,42,38,206,198,97,41,159,50,176,121,151,72,112,208,217,69,85,125,190,113,28,83,192,118,194,130,147,172,123,187,60,181,135,180,205,57,138,10,142,196,45,124,226,19,116,182,21,25,143,144,210,214,27,49,150,107,34,86,93,61,101,54,77,129,39,80,26,168,33,36,191,178,115,160,183,100,165,8,67,95,90,88,106,195,74,204,185,89,108,87,227,141,169,149,170,102,186,11,145,128,216,3,20,152,32,223,37,5,202,103,229,44,211,92,167,171,203,212,58,51,220,104,201,174,17,53,55,52,91,99,215,98,23,65,189,218,140,105,127,40,221,76,120,179,157,81,1,114,148,131,79,24,122,84,166,78,94,56,75,173,64,153,163,199,9,197,164,13,109,200,18,133,213,158,22,68,225,184,15,188,207,2,137,59,136,14,7,119,96,193,29,219,43,63,4,155,222,175,16,46,47,110,12,224,35,6,209,132,111,154,228,161,82,134,70,117,31,62
